Data path: /scratch/opt/lxu/CFLG/benchmarks/random_B
Instance: r_40_0.3_219.txt
Result path: /scratch/opt/lxu/CFLG/results/random_B
Solver: Gurobi
Time limit: 7200
Formulation: LEFPAD
Cover: Small
julia --project=. src/main.jl /scratch/opt/lxu/CFLG/benchmarks/random_B r_40_0.3_219.txt /scratch/opt/lxu/CFLG/results/random_B Gurobi 7200 LEFPAD Small
The latest version of Julia in the `release` channel is 1.11.5+0.x64.linux.gnu. You currently have `1.11.4+0.x64.linux.gnu` installed. Run:

  juliaup update

in your terminal shell to install Julia 1.11.5+0.x64.linux.gnu and update the `release` channel to that version.
/scratch/opt/lxu/CFLG/benchmarks/random_B Gurobi 7200.0 /scratch/opt/lxu/CFLG/results/random_B r_40_0.3_219.txt LEFPAD Small
/scratch/opt/lxu/CFLG/benchmarks/random_B/r_40_0.3_219.txt

 read graph
data loaded


after absorb:40 40

max_piece:8
problem_graph/original graph: node: 62/40 edge: 241/219 dlt: 0.1582830928992452 break_avg_len: 0.5753360555175886 break_max_len: 0.9989750688619838Vbar/V, Ebar/E(62, 62, 241, 241)
Set parameter TokenServer to value "solice01.zib.de"
Set parameter Threads to value 1
Set parameter OutputFlag to value 1
Gurobi Optimizer version 12.0.1 build v12.0.1rc0 (linux64 - "Debian GNU/Linux 12 (bookworm)")

CPU model: Intel(R) Xeon(R) Gold 5122 CPU @ 3.60GHz, instruction set [SSE2|AVX|AVX2|AVX512]
Thread count: 8 physical cores, 16 logical processors, using up to 1 threads

Non-default parameters:
Threads  1

Optimize a model with 303 rows, 723 columns and 1205 nonzeros
Model fingerprint: 0xa352e795
Coefficient statistics:
  Matrix range     [1e+00, 1e+00]
  Objective range  [1e+00, 1e+00]
  Bounds range     [1e+00, 1e+00]
  RHS range        [0e+00, 0e+00]
Presolve removed 303 rows and 723 columns
Presolve time: 0.00s
Presolve: All rows and columns removed
Iteration    Objective       Primal Inf.    Dual Inf.      Time
       0   -0.0000000e+00   0.000000e+00   0.000000e+00      0s

Solved in 0 iterations and 0.00 seconds (0.00 work units)
Optimal objective -0.000000000e+00

User-callback calls 35, time in user-callback 0.01 sec
elapsed CPU time: 1.423403 seconds
Set parameter TokenServer to value "solice01.zib.de"
Set parameter Threads to value 1
Set parameter OutputFlag to value 1
Set parameter MIPGap to value 0.0001
Set parameter MIPGapAbs to value 0.999998
Set parameter TimeLimit to value 7198.576597

 more cuts: false 0.1582830928992452 false
is_attach:trueformulation:LEFPAD0 241 0

 model loaded

Gurobi Optimizer version 12.0.1 build v12.0.1rc0 (linux64 - "Debian GNU/Linux 12 (bookworm)")

CPU model: Intel(R) Xeon(R) Gold 5122 CPU @ 3.60GHz, instruction set [SSE2|AVX|AVX2|AVX512]
Thread count: 8 physical cores, 16 logical processors, using up to 1 threads

Non-default parameters:
TimeLimit  7198.576597
MIPGapAbs  0.999998
Threads  1

Optimize a model with 4364 rows, 3334 columns and 12121 nonzeros
Model fingerprint: 0xb1afa4d4
Variable types: 1636 continuous, 1698 integer (1698 binary)
Coefficient statistics:
  Matrix range     [2e-07, 1e+00]
  Objective range  [1e+00, 1e+00]
  Bounds range     [9e-02, 1e+00]
  RHS range        [9e-02, 1e+00]
Found heuristic solution: objective 241.0000000
Presolve removed 2506 rows and 968 columns
Presolve time: 0.03s
Presolved: 1858 rows, 2366 columns, 7263 nonzeros
Variable types: 1274 continuous, 1092 integer (1092 binary)

Root relaxation: objective 1.970000e+02, 696 iterations, 0.01 seconds (0.01 work units)

    Nodes    |    Current Node    |     Objective Bounds      |     Work
 Expl Unexpl |  Obj  Depth IntInf | Incumbent    BestBd   Gap | It/Node Time

     0     0  197.00000    0    6  241.00000  197.00000  18.3%     -    0s
H    0     0                     197.0000000  197.00000  0.00%     -    0s
     0     0  197.00000    0    6  197.00000  197.00000  0.00%     -    0s

Explored 1 nodes (696 simplex iterations) in 0.05 seconds (0.03 work units)
Thread count was 1 (of 16 available processors)

Solution count 2: 197 241 

Optimal solution found (tolerance 1.00e-04)
Best objective 1.970000000000e+02, best bound 1.970000000000e+02, gap 0.0000%

User-callback calls 370, time in user-callback 0.00 sec

 sepatime0 0 0
197.0Stat(MathOptInterface.OPTIMAL, 197.0, 197.0, 0.0, 0.0, 1.423403, 0.04843401908874512, 1, Main.CFLG.LEFPAD, "", #undef)
